set K := P1 P2 P3;
param T := 5;
param h :    1   2   3   4   5  :=
          P1 1   1   1   1   1        
          P2 1   1   1   1   1  
          P3 1   1   1   1   1  ;   
param s := P1 100  P2 100  P3 100;
param d :      1   2   3   4   5  :=
          P1  30   0  80   0  40     
          P2   0   0  30   0  70  
          P3   0   0  40   0  60  ;
param y0 := P1 0  P2 0  P3 0;
param tb := P1 1  P2 1  P3 1;
param tr := P1 10 P2 10 P3 10;
param b := 1 100  2 100  3 100  4 100  5 100;

end;
